; benchmark generated from python API
(set-info :status unknown)
(declare-fun cell_1_6 () Int)
(declare-fun cell_1_8 () Int)
(declare-fun cell_2_7 () Int)
(declare-fun cell_3_3 () Int)
(declare-fun cell_4_4 () Int)
(declare-fun cell_5_8 () Int)
(declare-fun cell_6_1 () Int)
(declare-fun cell_7_9 () Int)
(declare-fun cell_8_2 () Int)
(declare-fun cell_9_5 () Int)
(declare-fun cell_1_1 () Int)
(declare-fun cell_2_1 () Int)
(declare-fun cell_3_1 () Int)
(declare-fun cell_4_1 () Int)
(declare-fun cell_5_1 () Int)
(declare-fun cell_7_1 () Int)
(declare-fun cell_8_1 () Int)
(declare-fun cell_9_1 () Int)
(declare-fun cell_1_2 () Int)
(declare-fun cell_2_2 () Int)
(declare-fun cell_3_2 () Int)
(declare-fun cell_4_2 () Int)
(declare-fun cell_5_2 () Int)
(declare-fun cell_6_2 () Int)
(declare-fun cell_7_2 () Int)
(declare-fun cell_9_2 () Int)
(declare-fun cell_1_3 () Int)
(declare-fun cell_2_3 () Int)
(declare-fun cell_4_3 () Int)
(declare-fun cell_5_3 () Int)
(declare-fun cell_6_3 () Int)
(declare-fun cell_7_3 () Int)
(declare-fun cell_8_3 () Int)
(declare-fun cell_9_3 () Int)
(declare-fun cell_1_4 () Int)
(declare-fun cell_2_4 () Int)
(declare-fun cell_3_4 () Int)
(declare-fun cell_5_4 () Int)
(declare-fun cell_6_4 () Int)
(declare-fun cell_7_4 () Int)
(declare-fun cell_8_4 () Int)
(declare-fun cell_9_4 () Int)
(declare-fun cell_1_5 () Int)
(declare-fun cell_2_5 () Int)
(declare-fun cell_3_5 () Int)
(declare-fun cell_4_5 () Int)
(declare-fun cell_5_5 () Int)
(declare-fun cell_6_5 () Int)
(declare-fun cell_7_5 () Int)
(declare-fun cell_8_5 () Int)
(declare-fun cell_2_6 () Int)
(declare-fun cell_3_6 () Int)
(declare-fun cell_4_6 () Int)
(declare-fun cell_5_6 () Int)
(declare-fun cell_6_6 () Int)
(declare-fun cell_7_6 () Int)
(declare-fun cell_8_6 () Int)
(declare-fun cell_9_6 () Int)
(declare-fun cell_1_7 () Int)
(declare-fun cell_3_7 () Int)
(declare-fun cell_4_7 () Int)
(declare-fun cell_5_7 () Int)
(declare-fun cell_6_7 () Int)
(declare-fun cell_7_7 () Int)
(declare-fun cell_8_7 () Int)
(declare-fun cell_9_7 () Int)
(declare-fun cell_2_8 () Int)
(declare-fun cell_3_8 () Int)
(declare-fun cell_4_8 () Int)
(declare-fun cell_6_8 () Int)
(declare-fun cell_7_8 () Int)
(declare-fun cell_8_8 () Int)
(declare-fun cell_9_8 () Int)
(declare-fun cell_1_9 () Int)
(declare-fun cell_2_9 () Int)
(declare-fun cell_3_9 () Int)
(declare-fun cell_4_9 () Int)
(declare-fun cell_5_9 () Int)
(declare-fun cell_6_9 () Int)
(declare-fun cell_8_9 () Int)
(declare-fun cell_9_9 () Int)
(assert
 (= cell_1_6 1))
(assert
 (= cell_1_8 2))
(assert
 (= cell_2_7 1))
(assert
 (= cell_3_3 1))
(assert
 (= cell_4_4 1))
(assert
 (= cell_5_8 1))
(assert
 (= cell_6_1 1))
(assert
 (= cell_7_9 1))
(assert
 (= cell_8_2 1))
(assert
 (= cell_9_5 1))
(assert
 (let (($x2698 (= cell_1_1 9)))
 (let (($x5870 (= cell_1_1 8)))
 (let (($x2033 (= cell_1_1 7)))
 (let (($x3025 (= cell_1_1 6)))
 (let (($x1618 (= cell_1_1 5)))
 (let (($x3766 (= cell_1_1 4)))
 (let (($x360 (= cell_1_1 3)))
 (let (($x797 (= cell_1_1 2)))
 (let (($x1834 (= cell_1_1 1)))
 (or $x1834 $x797 $x360 $x3766 $x1618 $x3025 $x2033 $x5870 $x2698)))))))))))
(assert
 (let (($x492 (= cell_2_1 9)))
 (let (($x3980 (= cell_2_1 8)))
 (let (($x3073 (= cell_2_1 7)))
 (let (($x1113 (= cell_2_1 6)))
 (let (($x1614 (= cell_2_1 5)))
 (let (($x6549 (= cell_2_1 4)))
 (let (($x6567 (= cell_2_1 3)))
 (let (($x3739 (= cell_2_1 2)))
 (let (($x1415 (= cell_2_1 1)))
 (or $x1415 $x3739 $x6567 $x6549 $x1614 $x1113 $x3073 $x3980 $x492)))))))))))
(assert
 (let (($x237 (= cell_3_1 9)))
 (let (($x4132 (= cell_3_1 8)))
 (let (($x5272 (= cell_3_1 7)))
 (let (($x24 (= cell_3_1 6)))
 (let (($x6156 (= cell_3_1 5)))
 (let (($x6571 (= cell_3_1 4)))
 (let (($x5984 (= cell_3_1 3)))
 (let (($x788 (= cell_3_1 2)))
 (let (($x103 (= cell_3_1 1)))
 (or $x103 $x788 $x5984 $x6571 $x6156 $x24 $x5272 $x4132 $x237)))))))))))
(assert
 (let (($x346 (= cell_4_1 9)))
 (let (($x761 (= cell_4_1 8)))
 (let (($x4545 (= cell_4_1 7)))
 (let (($x663 (= cell_4_1 6)))
 (let (($x3817 (= cell_4_1 5)))
 (let (($x3252 (= cell_4_1 4)))
 (let (($x3515 (= cell_4_1 3)))
 (let (($x4999 (= cell_4_1 2)))
 (let (($x3362 (= cell_4_1 1)))
 (or $x3362 $x4999 $x3515 $x3252 $x3817 $x663 $x4545 $x761 $x346)))))))))))
(assert
 (let (($x6418 (= cell_5_1 9)))
 (let (($x1254 (= cell_5_1 8)))
 (let (($x4133 (= cell_5_1 7)))
 (let (($x410 (= cell_5_1 6)))
 (let (($x4746 (= cell_5_1 5)))
 (let (($x6045 (= cell_5_1 4)))
 (let (($x3995 (= cell_5_1 3)))
 (let (($x3838 (= cell_5_1 2)))
 (let (($x4504 (= cell_5_1 1)))
 (or $x4504 $x3838 $x3995 $x6045 $x4746 $x410 $x4133 $x1254 $x6418)))))))))))
(assert
 (let (($x2746 (= cell_6_1 1)))
 (or $x2746 (= cell_6_1 2) (= cell_6_1 3) (= cell_6_1 4) (= cell_6_1 5) (= cell_6_1 6) (= cell_6_1 7) (= cell_6_1 8) (= cell_6_1 9))))
(assert
 (let (($x541 (= cell_7_1 9)))
 (let (($x6150 (= cell_7_1 8)))
 (let (($x5168 (= cell_7_1 7)))
 (let (($x1152 (= cell_7_1 6)))
 (let (($x1181 (= cell_7_1 5)))
 (let (($x2959 (= cell_7_1 4)))
 (let (($x3882 (= cell_7_1 3)))
 (let (($x3983 (= cell_7_1 2)))
 (let (($x285 (= cell_7_1 1)))
 (or $x285 $x3983 $x3882 $x2959 $x1181 $x1152 $x5168 $x6150 $x541)))))))))))
(assert
 (let (($x3856 (= cell_8_1 9)))
 (let (($x3227 (= cell_8_1 8)))
 (let (($x3916 (= cell_8_1 7)))
 (let (($x2041 (= cell_8_1 6)))
 (let (($x1329 (= cell_8_1 5)))
 (let (($x3365 (= cell_8_1 4)))
 (let (($x4130 (= cell_8_1 3)))
 (let (($x3096 (= cell_8_1 2)))
 (let (($x819 (= cell_8_1 1)))
 (or $x819 $x3096 $x4130 $x3365 $x1329 $x2041 $x3916 $x3227 $x3856)))))))))))
(assert
 (let (($x4014 (= cell_9_1 9)))
 (let (($x835 (= cell_9_1 8)))
 (let (($x1542 (= cell_9_1 7)))
 (let (($x2668 (= cell_9_1 6)))
 (let (($x3968 (= cell_9_1 5)))
 (let (($x1016 (= cell_9_1 4)))
 (let (($x5187 (= cell_9_1 3)))
 (let (($x3762 (= cell_9_1 2)))
 (let (($x1265 (= cell_9_1 1)))
 (or $x1265 $x3762 $x5187 $x1016 $x3968 $x2668 $x1542 $x835 $x4014)))))))))))
(assert
 (let (($x2563 (= cell_1_2 9)))
 (let (($x4469 (= cell_1_2 8)))
 (let (($x366 (= cell_1_2 7)))
 (let (($x536 (= cell_1_2 6)))
 (let (($x4516 (= cell_1_2 5)))
 (let (($x852 (= cell_1_2 4)))
 (let (($x6307 (= cell_1_2 3)))
 (let (($x6439 (= cell_1_2 2)))
 (let (($x3775 (= cell_1_2 1)))
 (or $x3775 $x6439 $x6307 $x852 $x4516 $x536 $x366 $x4469 $x2563)))))))))))
(assert
 (let (($x1746 (= cell_2_2 9)))
 (let (($x5680 (= cell_2_2 8)))
 (let (($x4088 (= cell_2_2 7)))
 (let (($x5577 (= cell_2_2 6)))
 (let (($x5283 (= cell_2_2 5)))
 (let (($x6448 (= cell_2_2 4)))
 (let (($x2731 (= cell_2_2 3)))
 (let (($x2385 (= cell_2_2 2)))
 (let (($x4145 (= cell_2_2 1)))
 (or $x4145 $x2385 $x2731 $x6448 $x5283 $x5577 $x4088 $x5680 $x1746)))))))))))
(assert
 (let (($x2381 (= cell_3_2 9)))
 (let (($x393 (= cell_3_2 8)))
 (let (($x2742 (= cell_3_2 7)))
 (let (($x16 (= cell_3_2 6)))
 (let (($x2405 (= cell_3_2 5)))
 (let (($x5471 (= cell_3_2 4)))
 (let (($x6584 (= cell_3_2 3)))
 (let (($x4752 (= cell_3_2 2)))
 (let (($x1215 (= cell_3_2 1)))
 (or $x1215 $x4752 $x6584 $x5471 $x2405 $x16 $x2742 $x393 $x2381)))))))))))
(assert
 (let (($x665 (= cell_4_2 9)))
 (let (($x4606 (= cell_4_2 8)))
 (let (($x2174 (= cell_4_2 7)))
 (let (($x217 (= cell_4_2 6)))
 (let (($x2506 (= cell_4_2 5)))
 (let (($x6364 (= cell_4_2 4)))
 (let (($x500 (= cell_4_2 3)))
 (let (($x6582 (= cell_4_2 2)))
 (let (($x5663 (= cell_4_2 1)))
 (or $x5663 $x6582 $x500 $x6364 $x2506 $x217 $x2174 $x4606 $x665)))))))))))
(assert
 (let (($x3364 (= cell_5_2 9)))
 (let (($x6048 (= cell_5_2 8)))
 (let (($x3942 (= cell_5_2 7)))
 (let (($x5299 (= cell_5_2 6)))
 (let (($x1782 (= cell_5_2 5)))
 (let (($x1996 (= cell_5_2 4)))
 (let (($x3923 (= cell_5_2 3)))
 (let (($x861 (= cell_5_2 2)))
 (let (($x1588 (= cell_5_2 1)))
 (or $x1588 $x861 $x3923 $x1996 $x1782 $x5299 $x3942 $x6048 $x3364)))))))))))
(assert
 (let (($x5892 (= cell_6_2 9)))
 (let (($x5413 (= cell_6_2 8)))
 (let (($x5279 (= cell_6_2 7)))
 (let (($x4672 (= cell_6_2 6)))
 (let (($x4005 (= cell_6_2 5)))
 (let (($x3480 (= cell_6_2 4)))
 (let (($x3133 (= cell_6_2 3)))
 (let (($x4676 (= cell_6_2 2)))
 (let (($x4936 (= cell_6_2 1)))
 (or $x4936 $x4676 $x3133 $x3480 $x4005 $x4672 $x5279 $x5413 $x5892)))))))))))
(assert
 (let (($x6426 (= cell_7_2 9)))
 (let (($x4057 (= cell_7_2 8)))
 (let (($x6446 (= cell_7_2 7)))
 (let (($x6456 (= cell_7_2 6)))
 (let (($x3017 (= cell_7_2 5)))
 (let (($x5532 (= cell_7_2 4)))
 (let (($x800 (= cell_7_2 3)))
 (let (($x4331 (= cell_7_2 2)))
 (let (($x3540 (= cell_7_2 1)))
 (or $x3540 $x4331 $x800 $x5532 $x3017 $x6456 $x6446 $x4057 $x6426)))))))))))
(assert
 (let (($x3773 (= cell_8_2 1)))
 (or $x3773 (= cell_8_2 2) (= cell_8_2 3) (= cell_8_2 4) (= cell_8_2 5) (= cell_8_2 6) (= cell_8_2 7) (= cell_8_2 8) (= cell_8_2 9))))
(assert
 (let (($x2010 (= cell_9_2 9)))
 (let (($x5305 (= cell_9_2 8)))
 (let (($x4772 (= cell_9_2 7)))
 (let (($x4632 (= cell_9_2 6)))
 (let (($x4021 (= cell_9_2 5)))
 (let (($x3656 (= cell_9_2 4)))
 (let (($x4736 (= cell_9_2 3)))
 (let (($x5441 (= cell_9_2 2)))
 (let (($x5432 (= cell_9_2 1)))
 (or $x5432 $x5441 $x4736 $x3656 $x4021 $x4632 $x4772 $x5305 $x2010)))))))))))
(assert
 (let (($x3249 (= cell_1_3 9)))
 (let (($x1061 (= cell_1_3 8)))
 (let (($x1180 (= cell_1_3 7)))
 (let (($x2935 (= cell_1_3 6)))
 (let (($x4832 (= cell_1_3 5)))
 (let (($x1125 (= cell_1_3 4)))
 (let (($x3675 (= cell_1_3 3)))
 (let (($x6368 (= cell_1_3 2)))
 (let (($x723 (= cell_1_3 1)))
 (or $x723 $x6368 $x3675 $x1125 $x4832 $x2935 $x1180 $x1061 $x3249)))))))))))
(assert
 (let (($x1321 (= cell_2_3 9)))
 (let (($x381 (= cell_2_3 8)))
 (let (($x4002 (= cell_2_3 7)))
 (let (($x3149 (= cell_2_3 6)))
 (let (($x2274 (= cell_2_3 5)))
 (let (($x1660 (= cell_2_3 4)))
 (let (($x2263 (= cell_2_3 3)))
 (let (($x2587 (= cell_2_3 2)))
 (let (($x151 (= cell_2_3 1)))
 (or $x151 $x2587 $x2263 $x1660 $x2274 $x3149 $x4002 $x381 $x1321)))))))))))
(assert
 (let (($x664 (= cell_3_3 1)))
 (or $x664 (= cell_3_3 2) (= cell_3_3 3) (= cell_3_3 4) (= cell_3_3 5) (= cell_3_3 6) (= cell_3_3 7) (= cell_3_3 8) (= cell_3_3 9))))
(assert
 (let (($x6445 (= cell_4_3 9)))
 (let (($x5619 (= cell_4_3 8)))
 (let (($x1605 (= cell_4_3 7)))
 (let (($x6347 (= cell_4_3 6)))
 (let (($x5040 (= cell_4_3 5)))
 (let (($x6322 (= cell_4_3 4)))
 (let (($x1128 (= cell_4_3 3)))
 (let (($x4225 (= cell_4_3 2)))
 (let (($x2305 (= cell_4_3 1)))
 (or $x2305 $x4225 $x1128 $x6322 $x5040 $x6347 $x1605 $x5619 $x6445)))))))))))
(assert
 (let (($x4405 (= cell_5_3 9)))
 (let (($x430 (= cell_5_3 8)))
 (let (($x1437 (= cell_5_3 7)))
 (let (($x1083 (= cell_5_3 6)))
 (let (($x4622 (= cell_5_3 5)))
 (let (($x5987 (= cell_5_3 4)))
 (let (($x6561 (= cell_5_3 3)))
 (let (($x2827 (= cell_5_3 2)))
 (let (($x3863 (= cell_5_3 1)))
 (or $x3863 $x2827 $x6561 $x5987 $x4622 $x1083 $x1437 $x430 $x4405)))))))))))
(assert
 (let (($x5744 (= cell_6_3 2)))
 (let (($x4020 (= cell_6_3 1)))
 (or $x4020 $x5744 (= cell_6_3 3) (= cell_6_3 4) (= cell_6_3 5) (= cell_6_3 6) (= cell_6_3 7) (= cell_6_3 8) (= cell_6_3 9)))))
(assert
 (let (($x1039 (= cell_7_3 9)))
 (let (($x4183 (= cell_7_3 8)))
 (let (($x812 (= cell_7_3 7)))
 (let (($x205 (= cell_7_3 6)))
 (let (($x4623 (= cell_7_3 5)))
 (let (($x1139 (= cell_7_3 4)))
 (let (($x4150 (= cell_7_3 3)))
 (let (($x5455 (= cell_7_3 2)))
 (let (($x4310 (= cell_7_3 1)))
 (or $x4310 $x5455 $x4150 $x1139 $x4623 $x205 $x812 $x4183 $x1039)))))))))))
(assert
 (let (($x4248 (= cell_8_3 1)))
 (or $x4248 (= cell_8_3 2) (= cell_8_3 3) (= cell_8_3 4) (= cell_8_3 5) (= cell_8_3 6) (= cell_8_3 7) (= cell_8_3 8) (= cell_8_3 9))))
(assert
 (let (($x1294 (= cell_9_3 9)))
 (let (($x7603 (= cell_9_3 8)))
 (let (($x2236 (= cell_9_3 7)))
 (let (($x323 (= cell_9_3 6)))
 (let (($x1028 (= cell_9_3 5)))
 (let (($x5165 (= cell_9_3 4)))
 (let (($x3928 (= cell_9_3 3)))
 (let (($x3892 (= cell_9_3 2)))
 (let (($x9892 (= cell_9_3 1)))
 (or $x9892 $x3892 $x3928 $x5165 $x1028 $x323 $x2236 $x7603 $x1294)))))))))))
(assert
 (let (($x3168 (= cell_1_4 9)))
 (let (($x6196 (= cell_1_4 8)))
 (let (($x1772 (= cell_1_4 7)))
 (let (($x4564 (= cell_1_4 6)))
 (let (($x3698 (= cell_1_4 5)))
 (let (($x2223 (= cell_1_4 4)))
 (let (($x1796 (= cell_1_4 3)))
 (let (($x5604 (= cell_1_4 2)))
 (let (($x4458 (= cell_1_4 1)))
 (or $x4458 $x5604 $x1796 $x2223 $x3698 $x4564 $x1772 $x6196 $x3168)))))))))))
(assert
 (let (($x5172 (= cell_2_4 9)))
 (let (($x4385 (= cell_2_4 8)))
 (let (($x2799 (= cell_2_4 7)))
 (let (($x1994 (= cell_2_4 6)))
 (let (($x799 (= cell_2_4 5)))
 (let (($x4082 (= cell_2_4 4)))
 (let (($x2348 (= cell_2_4 3)))
 (let (($x5487 (= cell_2_4 2)))
 (let (($x5591 (= cell_2_4 1)))
 (or $x5591 $x5487 $x2348 $x4082 $x799 $x1994 $x2799 $x4385 $x5172)))))))))))
(assert
 (let (($x3857 (= cell_3_4 9)))
 (let (($x792 (= cell_3_4 8)))
 (let (($x2504 (= cell_3_4 7)))
 (let (($x4548 (= cell_3_4 6)))
 (let (($x3895 (= cell_3_4 5)))
 (let (($x1347 (= cell_3_4 4)))
 (let (($x3264 (= cell_3_4 3)))
 (let (($x5190 (= cell_3_4 2)))
 (let (($x3350 (= cell_3_4 1)))
 (or $x3350 $x5190 $x3264 $x1347 $x3895 $x4548 $x2504 $x792 $x3857)))))))))))
(assert
 (let (($x4497 (= cell_4_4 1)))
 (or $x4497 (= cell_4_4 2) (= cell_4_4 3) (= cell_4_4 4) (= cell_4_4 5) (= cell_4_4 6) (= cell_4_4 7) (= cell_4_4 8) (= cell_4_4 9))))
(assert
 (let (($x4138 (= cell_5_4 9)))
 (let (($x4096 (= cell_5_4 8)))
 (let (($x2239 (= cell_5_4 7)))
 (let (($x328 (= cell_5_4 6)))
 (let (($x6291 (= cell_5_4 5)))
 (let (($x922 (= cell_5_4 4)))
 (let (($x1063 (= cell_5_4 3)))
 (let (($x3749 (= cell_5_4 2)))
 (let (($x1615 (= cell_5_4 1)))
 (or $x1615 $x3749 $x1063 $x922 $x6291 $x328 $x2239 $x4096 $x4138)))))))))))
(assert
 (let (($x243 (= cell_6_4 1)))
 (or $x243 (= cell_6_4 2) (= cell_6_4 3) (= cell_6_4 4) (= cell_6_4 5) (= cell_6_4 6) (= cell_6_4 7) (= cell_6_4 8) (= cell_6_4 9))))
(assert
 (let (($x4506 (= cell_7_4 9)))
 (let (($x1020 (= cell_7_4 8)))
 (let (($x3659 (= cell_7_4 7)))
 (let (($x1814 (= cell_7_4 6)))
 (let (($x2233 (= cell_7_4 5)))
 (let (($x3345 (= cell_7_4 4)))
 (let (($x2908 (= cell_7_4 3)))
 (let (($x3879 (= cell_7_4 2)))
 (let (($x1416 (= cell_7_4 1)))
 (or $x1416 $x3879 $x2908 $x3345 $x2233 $x1814 $x3659 $x1020 $x4506)))))))))))
(assert
 (let (($x2999 (= cell_8_4 9)))
 (let (($x1227 (= cell_8_4 8)))
 (let (($x2286 (= cell_8_4 7)))
 (let (($x3250 (= cell_8_4 6)))
 (let (($x6547 (= cell_8_4 5)))
 (let (($x3104 (= cell_8_4 4)))
 (let (($x6391 (= cell_8_4 3)))
 (let (($x5325 (= cell_8_4 2)))
 (let (($x3774 (= cell_8_4 1)))
 (or $x3774 $x5325 $x6391 $x3104 $x6547 $x3250 $x2286 $x1227 $x2999)))))))))))
(assert
 (let (($x1279 (= cell_9_4 9)))
 (let (($x4444 (= cell_9_4 8)))
 (let (($x6160 (= cell_9_4 7)))
 (let (($x384 (= cell_9_4 6)))
 (let (($x2524 (= cell_9_4 5)))
 (let (($x4000 (= cell_9_4 4)))
 (let (($x5872 (= cell_9_4 3)))
 (let (($x1014 (= cell_9_4 2)))
 (let (($x4423 (= cell_9_4 1)))
 (or $x4423 $x1014 $x5872 $x4000 $x2524 $x384 $x6160 $x4444 $x1279)))))))))))
(assert
 (let (($x4334 (= cell_1_5 9)))
 (let (($x5669 (= cell_1_5 8)))
 (let (($x4790 (= cell_1_5 7)))
 (let (($x3796 (= cell_1_5 6)))
 (let (($x895 (= cell_1_5 5)))
 (let (($x3785 (= cell_1_5 4)))
 (let (($x2613 (= cell_1_5 3)))
 (let (($x3601 (= cell_1_5 2)))
 (let (($x3238 (= cell_1_5 1)))
 (or $x3238 $x3601 $x2613 $x3785 $x895 $x3796 $x4790 $x5669 $x4334)))))))))))
(assert
 (let (($x4384 (= cell_2_5 9)))
 (let (($x4041 (= cell_2_5 8)))
 (let (($x3500 (= cell_2_5 7)))
 (let (($x3855 (= cell_2_5 6)))
 (let (($x3336 (= cell_2_5 5)))
 (let (($x2970 (= cell_2_5 4)))
 (let (($x5001 (= cell_2_5 3)))
 (let (($x2439 (= cell_2_5 2)))
 (let (($x4483 (= cell_2_5 1)))
 (or $x4483 $x2439 $x5001 $x2970 $x3336 $x3855 $x3500 $x4041 $x4384)))))))))))
(assert
 (let (($x3812 (= cell_3_5 9)))
 (let (($x2906 (= cell_3_5 8)))
 (let (($x4978 (= cell_3_5 7)))
 (let (($x4129 (= cell_3_5 6)))
 (let (($x4492 (= cell_3_5 5)))
 (let (($x1392 (= cell_3_5 4)))
 (let (($x987 (= cell_3_5 3)))
 (let (($x5374 (= cell_3_5 2)))
 (let (($x3703 (= cell_3_5 1)))
 (or $x3703 $x5374 $x987 $x1392 $x4492 $x4129 $x4978 $x2906 $x3812)))))))))))
(assert
 (let (($x1206 (= cell_4_5 9)))
 (let (($x747 (= cell_4_5 8)))
 (let (($x1742 (= cell_4_5 7)))
 (let (($x4565 (= cell_4_5 6)))
 (let (($x2455 (= cell_4_5 5)))
 (let (($x1096 (= cell_4_5 4)))
 (let (($x4022 (= cell_4_5 3)))
 (let (($x4148 (= cell_4_5 2)))
 (let (($x268 (= cell_4_5 1)))
 (or $x268 $x4148 $x4022 $x1096 $x2455 $x4565 $x1742 $x747 $x1206)))))))))))
(assert
 (let (($x2410 (= cell_5_5 9)))
 (let (($x2606 (= cell_5_5 8)))
 (let (($x4645 (= cell_5_5 7)))
 (let (($x5556 (= cell_5_5 6)))
 (let (($x5791 (= cell_5_5 5)))
 (let (($x2612 (= cell_5_5 4)))
 (let (($x6028 (= cell_5_5 3)))
 (let (($x2853 (= cell_5_5 2)))
 (let (($x5155 (= cell_5_5 1)))
 (or $x5155 $x2853 $x6028 $x2612 $x5791 $x5556 $x4645 $x2606 $x2410)))))))))))
(assert
 (let (($x2216 (= cell_6_5 9)))
 (let (($x4119 (= cell_6_5 8)))
 (let (($x5625 (= cell_6_5 7)))
 (let (($x1659 (= cell_6_5 6)))
 (let (($x1424 (= cell_6_5 5)))
 (let (($x2050 (= cell_6_5 4)))
 (let (($x924 (= cell_6_5 3)))
 (let (($x3489 (= cell_6_5 2)))
 (let (($x5193 (= cell_6_5 1)))
 (or $x5193 $x3489 $x924 $x2050 $x1424 $x1659 $x5625 $x4119 $x2216)))))))))))
(assert
 (let (($x6204 (= cell_7_5 9)))
 (let (($x2560 (= cell_7_5 8)))
 (let (($x2536 (= cell_7_5 7)))
 (let (($x4877 (= cell_7_5 6)))
 (let (($x1448 (= cell_7_5 5)))
 (let (($x1580 (= cell_7_5 4)))
 (let (($x3157 (= cell_7_5 3)))
 (let (($x4391 (= cell_7_5 2)))
 (let (($x4433 (= cell_7_5 1)))
 (or $x4433 $x4391 $x3157 $x1580 $x1448 $x4877 $x2536 $x2560 $x6204)))))))))))
(assert
 (let (($x4991 (= cell_8_5 9)))
 (let (($x3688 (= cell_8_5 8)))
 (let (($x1589 (= cell_8_5 7)))
 (let (($x4100 (= cell_8_5 6)))
 (let (($x1725 (= cell_8_5 5)))
 (let (($x5174 (= cell_8_5 4)))
 (let (($x2514 (= cell_8_5 3)))
 (let (($x3786 (= cell_8_5 2)))
 (let (($x5906 (= cell_8_5 1)))
 (or $x5906 $x3786 $x2514 $x5174 $x1725 $x4100 $x1589 $x3688 $x4991)))))))))))
(assert
 (let (($x5740 (= cell_9_5 1)))
 (or $x5740 (= cell_9_5 2) (= cell_9_5 3) (= cell_9_5 4) (= cell_9_5 5) (= cell_9_5 6) (= cell_9_5 7) (= cell_9_5 8) (= cell_9_5 9))))
(assert
 (let (($x3579 (= cell_1_6 1)))
 (or $x3579 (= cell_1_6 2) (= cell_1_6 3) (= cell_1_6 4) (= cell_1_6 5) (= cell_1_6 6) (= cell_1_6 7) (= cell_1_6 8) (= cell_1_6 9))))
(assert
 (let (($x2493 (= cell_2_6 9)))
 (let (($x5234 (= cell_2_6 8)))
 (let (($x3804 (= cell_2_6 7)))
 (let (($x1374 (= cell_2_6 6)))
 (let (($x3577 (= cell_2_6 5)))
 (let (($x608 (= cell_2_6 4)))
 (let (($x1154 (= cell_2_6 3)))
 (let (($x3781 (= cell_2_6 2)))
 (let (($x4605 (= cell_2_6 1)))
 (or $x4605 $x3781 $x1154 $x608 $x3577 $x1374 $x3804 $x5234 $x2493)))))))))))
(assert
 (let (($x855 (= cell_3_6 2)))
 (let (($x757 (= cell_3_6 1)))
 (or $x757 $x855 (= cell_3_6 3) (= cell_3_6 4) (= cell_3_6 5) (= cell_3_6 6) (= cell_3_6 7) (= cell_3_6 8) (= cell_3_6 9)))))
(assert
 (let (($x3608 (= cell_4_6 1)))
 (or $x3608 (= cell_4_6 2) (= cell_4_6 3) (= cell_4_6 4) (= cell_4_6 5) (= cell_4_6 6) (= cell_4_6 7) (= cell_4_6 8) (= cell_4_6 9))))
(assert
 (let (($x4112 (= cell_5_6 9)))
 (let (($x5398 (= cell_5_6 8)))
 (let (($x4907 (= cell_5_6 7)))
 (let (($x4437 (= cell_5_6 6)))
 (let (($x5980 (= cell_5_6 5)))
 (let (($x4670 (= cell_5_6 4)))
 (let (($x3319 (= cell_5_6 3)))
 (let (($x29 (= cell_5_6 2)))
 (let (($x4816 (= cell_5_6 1)))
 (or $x4816 $x29 $x3319 $x4670 $x5980 $x4437 $x4907 $x5398 $x4112)))))))))))
(assert
 (let (($x4718 (= cell_6_6 1)))
 (or $x4718 (= cell_6_6 2) (= cell_6_6 3) (= cell_6_6 4) (= cell_6_6 5) (= cell_6_6 6) (= cell_6_6 7) (= cell_6_6 8) (= cell_6_6 9))))
(assert
 (let (($x3533 (= cell_7_6 9)))
 (let (($x3229 (= cell_7_6 8)))
 (let (($x4265 (= cell_7_6 7)))
 (let (($x2704 (= cell_7_6 6)))
 (let (($x4170 (= cell_7_6 5)))
 (let (($x1964 (= cell_7_6 4)))
 (let (($x5018 (= cell_7_6 3)))
 (let (($x5536 (= cell_7_6 2)))
 (let (($x1179 (= cell_7_6 1)))
 (or $x1179 $x5536 $x5018 $x1964 $x4170 $x2704 $x4265 $x3229 $x3533)))))))))))
(assert
 (let (($x6194 (= cell_8_6 9)))
 (let (($x3132 (= cell_8_6 8)))
 (let (($x4582 (= cell_8_6 7)))
 (let (($x2497 (= cell_8_6 6)))
 (let (($x4464 (= cell_8_6 5)))
 (let (($x1872 (= cell_8_6 4)))
 (let (($x2586 (= cell_8_6 3)))
 (let (($x3695 (= cell_8_6 2)))
 (let (($x1923 (= cell_8_6 1)))
 (or $x1923 $x3695 $x2586 $x1872 $x4464 $x2497 $x4582 $x3132 $x6194)))))))))))
(assert
 (let (($x4592 (= cell_9_6 1)))
 (or $x4592 (= cell_9_6 2) (= cell_9_6 3) (= cell_9_6 4) (= cell_9_6 5) (= cell_9_6 6) (= cell_9_6 7) (= cell_9_6 8) (= cell_9_6 9))))
(assert
 (let (($x2502 (= cell_1_7 9)))
 (let (($x1663 (= cell_1_7 8)))
 (let (($x2367 (= cell_1_7 7)))
 (let (($x624 (= cell_1_7 6)))
 (let (($x6165 (= cell_1_7 5)))
 (let (($x1712 (= cell_1_7 4)))
 (let (($x4727 (= cell_1_7 3)))
 (let (($x1532 (= cell_1_7 2)))
 (let (($x4731 (= cell_1_7 1)))
 (or $x4731 $x1532 $x4727 $x1712 $x6165 $x624 $x2367 $x1663 $x2502)))))))))))
(assert
 (let (($x2499 (= cell_2_7 1)))
 (or $x2499 (= cell_2_7 2) (= cell_2_7 3) (= cell_2_7 4) (= cell_2_7 5) (= cell_2_7 6) (= cell_2_7 7) (= cell_2_7 8) (= cell_2_7 9))))
(assert
 (let (($x2939 (= cell_3_7 2)))
 (let (($x1072 (= cell_3_7 1)))
 (or $x1072 $x2939 (= cell_3_7 3) (= cell_3_7 4) (= cell_3_7 5) (= cell_3_7 6) (= cell_3_7 7) (= cell_3_7 8) (= cell_3_7 9)))))
(assert
 (let (($x183 (= cell_4_7 9)))
 (let (($x4814 (= cell_4_7 8)))
 (let (($x5489 (= cell_4_7 7)))
 (let (($x3541 (= cell_4_7 6)))
 (let (($x2262 (= cell_4_7 5)))
 (let (($x3622 (= cell_4_7 4)))
 (let (($x1655 (= cell_4_7 3)))
 (let (($x6384 (= cell_4_7 2)))
 (let (($x2022 (= cell_4_7 1)))
 (or $x2022 $x6384 $x1655 $x3622 $x2262 $x3541 $x5489 $x4814 $x183)))))))))))
(assert
 (let (($x2889 (= cell_5_7 9)))
 (let (($x941 (= cell_5_7 8)))
 (let (($x3655 (= cell_5_7 7)))
 (let (($x78 (= cell_5_7 6)))
 (let (($x5226 (= cell_5_7 5)))
 (let (($x4425 (= cell_5_7 4)))
 (let (($x4159 (= cell_5_7 3)))
 (let (($x1170 (= cell_5_7 2)))
 (let (($x2058 (= cell_5_7 1)))
 (or $x2058 $x1170 $x4159 $x4425 $x5226 $x78 $x3655 $x941 $x2889)))))))))))
(assert
 (let (($x1627 (= cell_6_7 1)))
 (or $x1627 (= cell_6_7 2) (= cell_6_7 3) (= cell_6_7 4) (= cell_6_7 5) (= cell_6_7 6) (= cell_6_7 7) (= cell_6_7 8) (= cell_6_7 9))))
(assert
 (let (($x1023 (= cell_7_7 9)))
 (let (($x4650 (= cell_7_7 8)))
 (let (($x3681 (= cell_7_7 7)))
 (let (($x5106 (= cell_7_7 6)))
 (let (($x5454 (= cell_7_7 5)))
 (let (($x5138 (= cell_7_7 4)))
 (let (($x4966 (= cell_7_7 3)))
 (let (($x3003 (= cell_7_7 2)))
 (let (($x6577 (= cell_7_7 1)))
 (or $x6577 $x3003 $x4966 $x5138 $x5454 $x5106 $x3681 $x4650 $x1023)))))))))))
(assert
 (let (($x4056 (= cell_8_7 1)))
 (or $x4056 (= cell_8_7 2) (= cell_8_7 3) (= cell_8_7 4) (= cell_8_7 5) (= cell_8_7 6) (= cell_8_7 7) (= cell_8_7 8) (= cell_8_7 9))))
(assert
 (let (($x1261 (= cell_9_7 1)))
 (or $x1261 (= cell_9_7 2) (= cell_9_7 3) (= cell_9_7 4) (= cell_9_7 5) (= cell_9_7 6) (= cell_9_7 7) (= cell_9_7 8) (= cell_9_7 9))))
(assert
 (let (($x6545 (= cell_1_8 2)))
 (or (= cell_1_8 1) $x6545 (= cell_1_8 3) (= cell_1_8 4) (= cell_1_8 5) (= cell_1_8 6) (= cell_1_8 7) (= cell_1_8 8) (= cell_1_8 9))))
(assert
 (let (($x631 (= cell_2_8 9)))
 (let (($x4247 (= cell_2_8 8)))
 (let (($x11 (= cell_2_8 7)))
 (let (($x1285 (= cell_2_8 6)))
 (let (($x6166 (= cell_2_8 5)))
 (let (($x1729 (= cell_2_8 4)))
 (let (($x5957 (= cell_2_8 3)))
 (let (($x6088 (= cell_2_8 2)))
 (let (($x3899 (= cell_2_8 1)))
 (or $x3899 $x6088 $x5957 $x1729 $x6166 $x1285 $x11 $x4247 $x631)))))))))))
(assert
 (let (($x1068 (= cell_3_8 9)))
 (let (($x4774 (= cell_3_8 8)))
 (let (($x1305 (= cell_3_8 7)))
 (let (($x4820 (= cell_3_8 6)))
 (let (($x754 (= cell_3_8 5)))
 (let (($x3545 (= cell_3_8 4)))
 (let (($x1718 (= cell_3_8 3)))
 (let (($x5862 (= cell_3_8 2)))
 (let (($x798 (= cell_3_8 1)))
 (or $x798 $x5862 $x1718 $x3545 $x754 $x4820 $x1305 $x4774 $x1068)))))))))))
(assert
 (let (($x4620 (= cell_4_8 9)))
 (let (($x2017 (= cell_4_8 8)))
 (let (($x2450 (= cell_4_8 7)))
 (let (($x3836 (= cell_4_8 6)))
 (let (($x603 (= cell_4_8 5)))
 (let (($x4448 (= cell_4_8 4)))
 (let (($x3142 (= cell_4_8 3)))
 (let (($x4098 (= cell_4_8 2)))
 (let (($x980 (= cell_4_8 1)))
 (or $x980 $x4098 $x3142 $x4448 $x603 $x3836 $x2450 $x2017 $x4620)))))))))))
(assert
 (let (($x1428 (= cell_5_8 1)))
 (or $x1428 (= cell_5_8 2) (= cell_5_8 3) (= cell_5_8 4) (= cell_5_8 5) (= cell_5_8 6) (= cell_5_8 7) (= cell_5_8 8) (= cell_5_8 9))))
(assert
 (let (($x5962 (= cell_6_8 2)))
 (let (($x3940 (= cell_6_8 1)))
 (or $x3940 $x5962 (= cell_6_8 3) (= cell_6_8 4) (= cell_6_8 5) (= cell_6_8 6) (= cell_6_8 7) (= cell_6_8 8) (= cell_6_8 9)))))
(assert
 (let (($x5507 (= cell_7_8 9)))
 (let (($x3827 (= cell_7_8 8)))
 (let (($x2773 (= cell_7_8 7)))
 (let (($x5362 (= cell_7_8 6)))
 (let (($x2145 (= cell_7_8 5)))
 (let (($x2975 (= cell_7_8 4)))
 (let (($x2748 (= cell_7_8 3)))
 (let (($x6138 (= cell_7_8 2)))
 (let (($x4972 (= cell_7_8 1)))
 (or $x4972 $x6138 $x2748 $x2975 $x2145 $x5362 $x2773 $x3827 $x5507)))))))))))
(assert
 (let (($x2272 (= cell_8_8 2)))
 (let (($x70 (= cell_8_8 1)))
 (or $x70 $x2272 (= cell_8_8 3) (= cell_8_8 4) (= cell_8_8 5) (= cell_8_8 6) (= cell_8_8 7) (= cell_8_8 8) (= cell_8_8 9)))))
(assert
 (let (($x1727 (= cell_9_8 2)))
 (let (($x1538 (= cell_9_8 1)))
 (or $x1538 $x1727 (= cell_9_8 3) (= cell_9_8 4) (= cell_9_8 5) (= cell_9_8 6) (= cell_9_8 7) (= cell_9_8 8) (= cell_9_8 9)))))
(assert
 (let (($x204 (= cell_1_9 9)))
 (let (($x6176 (= cell_1_9 8)))
 (let (($x5430 (= cell_1_9 7)))
 (let (($x2593 (= cell_1_9 6)))
 (let (($x3626 (= cell_1_9 5)))
 (let (($x2823 (= cell_1_9 4)))
 (let (($x938 (= cell_1_9 3)))
 (let (($x1078 (= cell_1_9 2)))
 (let (($x1509 (= cell_1_9 1)))
 (or $x1509 $x1078 $x938 $x2823 $x3626 $x2593 $x5430 $x6176 $x204)))))))))))
(assert
 (let (($x2136 (= cell_2_9 9)))
 (let (($x690 (= cell_2_9 8)))
 (let (($x1142 (= cell_2_9 7)))
 (let (($x1479 (= cell_2_9 6)))
 (let (($x277 (= cell_2_9 5)))
 (let (($x4555 (= cell_2_9 4)))
 (let (($x2153 (= cell_2_9 3)))
 (let (($x2074 (= cell_2_9 2)))
 (let (($x1966 (= cell_2_9 1)))
 (or $x1966 $x2074 $x2153 $x4555 $x277 $x1479 $x1142 $x690 $x2136)))))))))))
(assert
 (let (($x2787 (= cell_3_9 9)))
 (let (($x675 (= cell_3_9 8)))
 (let (($x5884 (= cell_3_9 7)))
 (let (($x6168 (= cell_3_9 6)))
 (let (($x3757 (= cell_3_9 5)))
 (let (($x41 (= cell_3_9 4)))
 (let (($x2954 (= cell_3_9 3)))
 (let (($x6060 (= cell_3_9 2)))
 (let (($x2778 (= cell_3_9 1)))
 (or $x2778 $x6060 $x2954 $x41 $x3757 $x6168 $x5884 $x675 $x2787)))))))))))
(assert
 (let (($x673 (= cell_4_9 9)))
 (let (($x4717 (= cell_4_9 8)))
 (let (($x3569 (= cell_4_9 7)))
 (let (($x5912 (= cell_4_9 6)))
 (let (($x5151 (= cell_4_9 5)))
 (let (($x598 (= cell_4_9 4)))
 (let (($x5543 (= cell_4_9 3)))
 (let (($x3952 (= cell_4_9 2)))
 (let (($x4319 (= cell_4_9 1)))
 (or $x4319 $x3952 $x5543 $x598 $x5151 $x5912 $x3569 $x4717 $x673)))))))))))
(assert
 (let (($x218 (= cell_5_9 9)))
 (let (($x632 (= cell_5_9 8)))
 (let (($x2237 (= cell_5_9 7)))
 (let (($x4103 (= cell_5_9 6)))
 (let (($x3289 (= cell_5_9 5)))
 (let (($x158 (= cell_5_9 4)))
 (let (($x814 (= cell_5_9 3)))
 (let (($x406 (= cell_5_9 2)))
 (let (($x2054 (= cell_5_9 1)))
 (or $x2054 $x406 $x814 $x158 $x3289 $x4103 $x2237 $x632 $x218)))))))))))
(assert
 (let (($x3790 (= cell_6_9 9)))
 (let (($x4826 (= cell_6_9 8)))
 (let (($x5571 (= cell_6_9 7)))
 (let (($x2479 (= cell_6_9 6)))
 (let (($x1792 (= cell_6_9 5)))
 (let (($x6067 (= cell_6_9 4)))
 (let (($x474 (= cell_6_9 3)))
 (let (($x6330 (= cell_6_9 2)))
 (let (($x4093 (= cell_6_9 1)))
 (or $x4093 $x6330 $x474 $x6067 $x1792 $x2479 $x5571 $x4826 $x3790)))))))))))
(assert
 (let (($x2604 (= cell_7_9 1)))
 (or $x2604 (= cell_7_9 2) (= cell_7_9 3) (= cell_7_9 4) (= cell_7_9 5) (= cell_7_9 6) (= cell_7_9 7) (= cell_7_9 8) (= cell_7_9 9))))
(assert
 (let (($x5319 (= cell_8_9 1)))
 (or $x5319 (= cell_8_9 2) (= cell_8_9 3) (= cell_8_9 4) (= cell_8_9 5) (= cell_8_9 6) (= cell_8_9 7) (= cell_8_9 8) (= cell_8_9 9))))
(assert
 (let (($x6335 (= cell_9_9 1)))
 (or $x6335 (= cell_9_9 2) (= cell_9_9 3) (= cell_9_9 4) (= cell_9_9 5) (= cell_9_9 6) (= cell_9_9 7) (= cell_9_9 8) (= cell_9_9 9))))
(assert
 (and (distinct cell_1_1 cell_1_2 cell_1_3 cell_1_4 cell_1_5 cell_1_6 cell_1_7 cell_1_8 cell_1_9) true))
(assert
 (and (distinct cell_2_1 cell_2_2 cell_2_3 cell_2_4 cell_2_5 cell_2_6 cell_2_7 cell_2_8 cell_2_9) true))
(assert
 (and (distinct cell_3_1 cell_3_2 cell_3_3 cell_3_4 cell_3_5 cell_3_6 cell_3_7 cell_3_8 cell_3_9) true))
(assert
 (and (distinct cell_4_1 cell_4_2 cell_4_3 cell_4_4 cell_4_5 cell_4_6 cell_4_7 cell_4_8 cell_4_9) true))
(assert
 (and (distinct cell_5_1 cell_5_2 cell_5_3 cell_5_4 cell_5_5 cell_5_6 cell_5_7 cell_5_8 cell_5_9) true))
(assert
 (and (distinct cell_6_1 cell_6_2 cell_6_3 cell_6_4 cell_6_5 cell_6_6 cell_6_7 cell_6_8 cell_6_9) true))
(assert
 (and (distinct cell_7_1 cell_7_2 cell_7_3 cell_7_4 cell_7_5 cell_7_6 cell_7_7 cell_7_8 cell_7_9) true))
(assert
 (and (distinct cell_8_1 cell_8_2 cell_8_3 cell_8_4 cell_8_5 cell_8_6 cell_8_7 cell_8_8 cell_8_9) true))
(assert
 (and (distinct cell_9_1 cell_9_2 cell_9_3 cell_9_4 cell_9_5 cell_9_6 cell_9_7 cell_9_8 cell_9_9) true))
(assert
 (and (distinct cell_1_1 cell_2_1 cell_3_1 cell_4_1 cell_5_1 cell_6_1 cell_7_1 cell_8_1 cell_9_1) true))
(assert
 (and (distinct cell_1_2 cell_2_2 cell_3_2 cell_4_2 cell_5_2 cell_6_2 cell_7_2 cell_8_2 cell_9_2) true))
(assert
 (and (distinct cell_1_3 cell_2_3 cell_3_3 cell_4_3 cell_5_3 cell_6_3 cell_7_3 cell_8_3 cell_9_3) true))
(assert
 (and (distinct cell_1_4 cell_2_4 cell_3_4 cell_4_4 cell_5_4 cell_6_4 cell_7_4 cell_8_4 cell_9_4) true))
(assert
 (and (distinct cell_1_5 cell_2_5 cell_3_5 cell_4_5 cell_5_5 cell_6_5 cell_7_5 cell_8_5 cell_9_5) true))
(assert
 (and (distinct cell_1_6 cell_2_6 cell_3_6 cell_4_6 cell_5_6 cell_6_6 cell_7_6 cell_8_6 cell_9_6) true))
(assert
 (and (distinct cell_1_7 cell_2_7 cell_3_7 cell_4_7 cell_5_7 cell_6_7 cell_7_7 cell_8_7 cell_9_7) true))
(assert
 (and (distinct cell_1_8 cell_2_8 cell_3_8 cell_4_8 cell_5_8 cell_6_8 cell_7_8 cell_8_8 cell_9_8) true))
(assert
 (and (distinct cell_1_9 cell_2_9 cell_3_9 cell_4_9 cell_5_9 cell_6_9 cell_7_9 cell_8_9 cell_9_9) true))
(assert
 (and (distinct cell_1_1 cell_1_2 cell_1_3 cell_2_1 cell_2_2 cell_2_3 cell_3_1 cell_3_2 cell_3_3) true))
(assert
 (and (distinct cell_1_4 cell_1_5 cell_1_6 cell_2_4 cell_2_5 cell_2_6 cell_3_4 cell_3_5 cell_3_6) true))
(assert
 (and (distinct cell_1_7 cell_1_8 cell_1_9 cell_2_7 cell_2_8 cell_2_9 cell_3_7 cell_3_8 cell_3_9) true))
(assert
 (and (distinct cell_4_1 cell_4_2 cell_4_3 cell_5_1 cell_5_2 cell_5_3 cell_6_1 cell_6_2 cell_6_3) true))
(assert
 (and (distinct cell_4_4 cell_4_5 cell_4_6 cell_5_4 cell_5_5 cell_5_6 cell_6_4 cell_6_5 cell_6_6) true))
(assert
 (and (distinct cell_4_7 cell_4_8 cell_4_9 cell_5_7 cell_5_8 cell_5_9 cell_6_7 cell_6_8 cell_6_9) true))
(assert
 (and (distinct cell_7_1 cell_7_2 cell_7_3 cell_8_1 cell_8_2 cell_8_3 cell_9_1 cell_9_2 cell_9_3) true))
(assert
 (and (distinct cell_7_4 cell_7_5 cell_7_6 cell_8_4 cell_8_5 cell_8_6 cell_9_4 cell_9_5 cell_9_6) true))
(assert
 (and (distinct cell_7_7 cell_7_8 cell_7_9 cell_8_7 cell_8_8 cell_8_9 cell_9_7 cell_9_8 cell_9_9) true))
(assert
 (let (($x5358 (and (distinct cell_5_9 cell_6_8 cell_7_7 cell_8_6) true)))
 (let (($x4801 (and (distinct cell_2_9 cell_3_8 cell_4_7 cell_5_6 cell_6_5 cell_7_4 cell_8_3 cell_9_2) true)))
 (let (($x4091 (and (distinct cell_1_8 cell_2_7 cell_3_6 cell_4_5 cell_5_4 cell_6_3 cell_7_2 cell_8_1) true)))
 (let (($x4669 (and (distinct cell_1_5 cell_2_4 cell_3_3 cell_4_2) true)))
 (let (($x5382 (and (distinct cell_5_1 cell_6_2 cell_7_3 cell_8_4) true)))
 (let (($x2750 (and (distinct cell_2_1 cell_3_2 cell_4_3 cell_5_4 cell_6_5 cell_7_6 cell_8_7 cell_9_8) true)))
 (let (($x3036 (and (distinct cell_1_2 cell_2_3 cell_3_4 cell_4_5 cell_5_6 cell_6_7 cell_7_8 cell_8_9) true)))
 (let (($x977 (and (distinct cell_1_5 cell_2_6 cell_3_7 cell_4_8) true)))
 (and $x977 $x3036 $x2750 $x5382 $x4669 $x4091 $x4801 $x5358))))))))))
(assert
 (and (distinct cell_2_3 2) true))
(check-sat)
